c colouring generated by benchmark framework
p edge 500 3555
v 1 4
v 2 6
v 3 0
v 4 8
v 5 12
v 6 4
v 7 13
v 8 1
v 9 1
v 10 13
v 11 0
v 12 10
v 13 1
v 14 1
v 15 0
v 16 7
v 17 0
v 18 3
v 19 12
v 20 3
v 21 1
v 22 4
v 23 1
v 24 11
v 25 1
v 26 4
v 27 8
v 28 1
v 29 13
v 30 1
v 31 1
v 32 10
v 33 1
v 34 5
v 35 10
v 36 3
v 37 5
v 38 2
v 39 9
v 40 7
v 41 0
v 42 10
v 43 3
v 44 4
v 45 2
v 46 0
v 47 0
v 48 7
v 49 5
v 50 2
v 51 1
v 52 1
v 53 3
v 54 4
v 55 6
v 56 4
v 57 6
v 58 6
v 59 4
v 60 7
v 61 0
v 62 2
v 63 11
v 64 12
v 65 10
v 66 12
v 67 8
v 68 6
v 69 1
v 70 9
v 71 4
v 72 1
v 73 0
v 74 5
v 75 7
v 76 11
v 77 10
v 78 4
v 79 0
v 80 12
v 81 8
v 82 9
v 83 2
v 84 12
v 85 6
v 86 2
v 87 6
v 88 6
v 89 1
v 90 4
v 91 10
v 92 1
v 93 2
v 94 3
v 95 2
v 96 1
v 97 3
v 98 1
v 99 1
v 100 2
v 101 5
v 102 4
v 103 10
v 104 12
v 105 3
v 106 8
v 107 13
v 108 0
v 109 12
v 110 13
v 111 2
v 112 0
v 113 4
v 114 0
v 115 0
v 116 6
v 117 13
v 118 7
v 119 4
v 120 9
v 121 10
v 122 0
v 123 9
v 124 1
v 125 12
v 126 3
v 127 3
v 128 1
v 129 13
v 130 0
v 131 13
v 132 5
v 133 4
v 134 4
v 135 13
v 136 4
v 137 13
v 138 6
v 139 10
v 140 9
v 141 5
v 142 0
v 143 8
v 144 2
v 145 0
v 146 1
v 147 10
v 148 2
v 149 2
v 150 13
v 151 7
v 152 7
v 153 4
v 154 11
v 155 6
v 156 10
v 157 8
v 158 3
v 159 6
v 160 6
v 161 7
v 162 3
v 163 10
v 164 5
v 165 8
v 166 2
v 167 4
v 168 1
v 169 4
v 170 8
v 171 10
v 172 9
v 173 8
v 174 3
v 175 11
v 176 2
v 177 4
v 178 4
v 179 2
v 180 6
v 181 11
v 182 8
v 183 9
v 184 2
v 185 1
v 186 10
v 187 0
v 188 0
v 189 4
v 190 10
v 191 13
v 192 0
v 193 1
v 194 8
v 195 13
v 196 4
v 197 0
v 198 8
v 199 3
v 200 1
v 201 5
v 202 3
v 203 3
v 204 7
v 205 0
v 206 4
v 207 3
v 208 0
v 209 12
v 210 6
v 211 13
v 212 0
v 213 11
v 214 3
v 215 12
v 216 5
v 217 7
v 218 7
v 219 8
v 220 1
v 221 3
v 222 6
v 223 0
v 224 12
v 225 13
v 226 10
v 227 0
v 228 9
v 229 13
v 230 0
v 231 3
v 232 7
v 233 3
v 234 3
v 235 0
v 236 10
v 237 3
v 238 9
v 239 2
v 240 3
v 241 12
v 242 1
v 243 12
v 244 7
v 245 0
v 246 9
v 247 5
v 248 11
v 249 4
v 250 9
v 251 7
v 252 5
v 253 12
v 254 1
v 255 4
v 256 11
v 257 0
v 258 7
v 259 2
v 260 7
v 261 0
v 262 12
v 263 13
v 264 5
v 265 1
v 266 2
v 267 1
v 268 12
v 269 3
v 270 2
v 271 7
v 272 0
v 273 8
v 274 9
v 275 5
v 276 6
v 277 0
v 278 13
v 279 2
v 280 7
v 281 10
v 282 10
v 283 12
v 284 10
v 285 4
v 286 0
v 287 13
v 288 1
v 289 8
v 290 7
v 291 0
v 292 1
v 293 1
v 294 10
v 295 4
v 296 7
v 297 9
v 298 0
v 299 8
v 300 5
v 301 11
v 302 5
v 303 5
v 304 5
v 305 0
v 306 1
v 307 13
v 308 0
v 309 2
v 310 2
v 311 0
v 312 1
v 313 1
v 314 11
v 315 0
v 316 4
v 317 11
v 318 13
v 319 4
v 320 9
v 321 7
v 322 3
v 323 6
v 324 1
v 325 5
v 326 7
v 327 11
v 328 4
v 329 10
v 330 6
v 331 12
v 332 2
v 333 10
v 334 12
v 335 11
v 336 5
v 337 12
v 338 0
v 339 13
v 340 1
v 341 6
v 342 2
v 343 10
v 344 10
v 345 10
v 346 4
v 347 2
v 348 5
v 349 6
v 350 4
v 351 0
v 352 5
v 353 3
v 354 8
v 355 4
v 356 10
v 357 5
v 358 1
v 359 2
v 360 6
v 361 7
v 362 6
v 363 13
v 364 12
v 365 6
v 366 2
v 367 5
v 368 0
v 369 3
v 370 1
v 371 7
v 372 11
v 373 5
v 374 2
v 375 3
v 376 11
v 377 11
v 378 9
v 379 2
v 380 6
v 381 2
v 382 7
v 383 2
v 384 1
v 385 3
v 386 8
v 387 0
v 388 2
v 389 6
v 390 2
v 391 0
v 392 3
v 393 4
v 394 4
v 395 12
v 396 2
v 397 5
v 398 8
v 399 9
v 400 0
v 401 12
v 402 8
v 403 5
v 404 1
v 405 1
v 406 2
v 407 6
v 408 6
v 409 13
v 410 4
v 411 11
v 412 5
v 413 6
v 414 4
v 415 2
v 416 6
v 417 5
v 418 4
v 419 9
v 420 1
v 421 10
v 422 9
v 423 1
v 424 2
v 425 3
v 426 13
v 427 5
v 428 4
v 429 1
v 430 8
v 431 3
v 432 1
v 433 0
v 434 3
v 435 3
v 436 4
v 437 6
v 438 8
v 439 3
v 440 9
v 441 2
v 442 2
v 443 3
v 444 7
v 445 9
v 446 1
v 447 1
v 448 2
v 449 13
v 450 3
v 451 2
v 452 2
v 453 0
v 454 2
v 455 0
v 456 0
v 457 3
v 458 3
v 459 4
v 460 4
v 461 1
v 462 1
v 463 11
v 464 0
v 465 8
v 466 2
v 467 6
v 468 11
v 469 3
v 470 11
v 471 3
v 472 1
v 473 7
v 474 2
v 475 12
v 476 6
v 477 9
v 478 11
v 479 2
v 480 5
v 481 4
v 482 0
v 483 4
v 484 1
v 485 2
v 486 8
v 487 7
v 488 9
v 489 8
v 490 0
v 491 0
v 492 10
v 493 6
v 494 5
v 495 7
v 496 0
v 497 6
v 498 9
v 499 12
v 500 5
